GLPSOL: GLPK LP/MIP Solver, v4.55
Parameter(s) specified in the command line:
 -m tmp.mod
Reading model section from tmp.mod...
Reading data section from tmp.mod...
146 lines were read
Generating obj...
Generating kirhoff...
Generating init_charge...
Generating batt_size...
Model has been successfully generated
GLPK Simplex Optimizer, v4.55
88 rows, 135 columns, 264 non-zeros
Preprocessing...
56 rows, 121 columns, 242 non-zeros
Scaling...
 A: min|aij| =  1.000e+00  max|aij| =  1.000e+00  ratio =  1.000e+00
Problem data seem to be well scaled
Constructing initial basis...
Size of triangular part is 56
      0: obj =   0.000000000e+00  infeas =  1.310e+02 (0)
*    39: obj =   1.000000000e+01  infeas =  0.000e+00 (0)
OPTIMAL LP SOLUTION FOUND
Time used:   0.0 secs
Memory used: 0.4 Mb (371887 bytes)
#OUTPUT:
10
-8 -10 -6 -2 3 -2 2 0 -8 0 2 5 0 -8 -2 -9 3 8 2 0 
-8 0 0 0 3 -1 0 0 -9 0 0 0 0 -9 -1 0 3 3 0 1 
-9 -10 -7 -4 -10 -2 -9 0 -9 0 -9 5 0 -9 -2 0 3 8 10 -8 
#OUTPUT END
Model has been successfully processed
